
Welcome to IBM(R) ILOG(R) CPLEX(R) Interactive Optimizer 22.1.1.0
  with Simplex, Mixed Integer & Barrier Optimizers
5725-A06 5725-A29 5724-Y48 5724-Y49 5724-Y54 5724-Y55 5655-Y21
Copyright IBM Corp. 1988, 2022.  All Rights Reserved.

Type 'help' for a list of available commands.
Type 'help' followed by a command name for more
information on commands.

CPLEX> Selected objective sense:  MINIMIZE
Selected objective  name:  00000000
Selected RHS        name:  RHS1
Selected bound      name:  BOUND
Problem 'ee.mps' read.
Read time = 0.03 sec. (3.14 ticks)
CPLEX> New value for time limit in seconds: 7200
CPLEX> New value for parallel optimization mode: -1
CPLEX> New value for default parallel thread count: 40
CPLEX> New value for mixed integer optimality gap tolerance: 1e-13
CPLEX> Version identifier: 22.1.1.0 | 2022-11-28 | 9160aff4d
CPXPARAM_Threads                                 40
CPXPARAM_Parallel                                -1
CPXPARAM_TimeLimit                               7200
CPXPARAM_MIP_Tolerances_MIPGap                   1e-13
Found incumbent of value 0.000000 after 0.00 sec. (0.31 ticks)
Tried aggregator 2 times.
MIP Presolve eliminated 183 rows and 2745 columns.
MIP Presolve modified 5862 coefficients.
Aggregator did 713 substitutions.
Reduced MIP has 3624 rows, 7744 columns, and 28667 nonzeros.
Reduced MIP has 7744 binaries, 0 generals, 0 SOSs, and 0 indicators.
Presolve time = 0.07 sec. (68.81 ticks)
Probing time = 0.03 sec. (5.30 ticks)
Tried aggregator 1 time.
Detecting symmetries...
Reduced MIP has 3624 rows, 7744 columns, and 28667 nonzeros.
Reduced MIP has 7744 binaries, 0 generals, 0 SOSs, and 0 indicators.
Presolve time = 0.03 sec. (21.95 ticks)
Probing time = 0.02 sec. (5.09 ticks)
Clique table members: 18558.
MIP emphasis: balance optimality and feasibility.
MIP search method: dynamic search.
Parallel mode: opportunistic, using up to 40 threads.
Root relaxation solution time = 0.15 sec. (125.76 ticks)

        Nodes                                         Cuts/
   Node  Left     Objective  IInf  Best Integer    Best Bound    ItCnt     Gap

*     0+    0                            0.0000  -1.31000e+13              --- 
*     0+    0                      -2.20000e+12  -1.31000e+13           495.46%
*     0+    0                      -4.29000e+12  -1.31000e+13           205.36%
*     0+    0                      -5.50000e+12  -1.31000e+13           138.18%
      0     0  -1.30900e+13   104  -5.50000e+12  -1.30900e+13     2718  138.00%
*     0+    0                      -8.80000e+12  -1.30900e+13            48.75%
*     0+    0                      -1.30900e+13  -1.30900e+13             0.00%
      0     0  -1.30900e+13   138  -1.30900e+13      Cuts: 79     3601    0.00%
*     0+    0                      -1.30900e+13  -1.30900e+13             0.00%
      0     0  -1.30900e+13   190  -1.30900e+13      Cuts: 81     4434    0.00%
*     0+    0                      -1.30900e+13  -1.30900e+13             0.00%
*     0+    0                      -1.30900e+13  -1.30900e+13             0.00%
      0     9        cutoff        -1.30900e+13  -1.30900e+13     5674    0.00%
Elapsed time = 2.80 sec. (1421.54 ticks, tree = 0.02 MB, solutions = 18)
*    24+   24                      -1.30900e+13  -1.30900e+13             0.00%
    205    57        cutoff        -1.30900e+13  -1.30900e+13    29355    0.00%
    800    69  -1.30900e+13    72  -1.30900e+13  -1.30900e+13    32872    0.00%
   1299    38  -1.30900e+13   135  -1.30900e+13  -1.30900e+13   112139    0.00%
   1823    46        cutoff        -1.30900e+13  -1.30900e+13   128048    0.00%
   2576    78        cutoff        -1.30900e+13  -1.30900e+13   137181    0.00%
   3116    43        cutoff        -1.30900e+13  -1.30900e+13   173692    0.00%
   3496    79        cutoff        -1.30900e+13  -1.30900e+13   216411    0.00%
   3835   121        cutoff        -1.30900e+13  -1.30900e+13   279305    0.00%
   3969    80  -1.30900e+13   245  -1.30900e+13  -1.30900e+13   252606    0.00%
   4534   145  -1.30900e+13   163  -1.30900e+13  -1.30900e+13   719692    0.00%
Elapsed time = 8.59 sec. (4527.79 ticks, tree = 0.87 MB, solutions = 46)
   5537   130        cutoff        -1.30900e+13  -1.30900e+13   586717    0.00%
   6614   154    infeasible        -1.30900e+13  -1.30900e+13   730517    0.00%
   7551    25        cutoff        -1.30900e+13  -1.30900e+13   966904    0.00%

GUB cover cuts applied:  2
Clique cuts applied:  15
Cover cuts applied:  919
Flow cuts applied:  3
Mixed integer rounding cuts applied:  2
Zero-half cuts applied:  13
Lift and project cuts applied:  2
Gomory fractional cuts applied:  26

Root node processing (before b&c):
  Real time             =    1.75 sec. (1415.12 ticks)
Parallel b&c, 40 threads:
  Real time             =    8.90 sec. (6099.89 ticks)
  Sync time (average)   =    1.74 sec.
  Wait time (average)   =    0.00 sec.
                          ------------
Total (root+branch&cut) =   10.65 sec. (7515.01 ticks)

Solution pool: 46 solutions saved.

MIP - Integer optimal solution:  Objective = -1.3089998989e+13
Solution time =   10.80 sec.  Iterations = 1018039  Nodes = 7558
Deterministic time = 7515.04 ticks  (695.54 ticks/sec)

CPLEX> Solution 'p47' written to file 'ee.sol'.
CPLEX> 